
50
10824

329 168
984 64
960 240
919 374
790 940
876 545
1 625
627 349
248 171
731 564
433 729
561 86
543 650
577 210
828 690
982 356
346 148
807 141
890 793
393 541
124 86
498 906
765 277
525 280
185 3
706 301
325 560
887 898
169 299
594 498
386 80
985 687
139 301
881 376
418 271
372 819
209 981
495 138
930 452
1000 107
940 751
612 908
237 127
508 683
650 304
296 451
987 573
85 385
235 652
204 327
